100
4 40 141 171 10 20 80
8 10 91 121 10 15 80
9 20 91 121 10 10 35
11 40 59 89 10 8 40
13 10 142 172 10 5 35
15 20 58 88 10 2 40
23 30 65 95 10 38 5
25 20 154 184 10 35 5
38 30 75 105 10 62 80
44 10 64 94 10 55 82
53 5 91 121 10 20 50
55 16 140 170 10 30 60
58 20 152 182 10 15 10
62 3 52 82 10 65 35
67 9 70 100 10 64 42
69 27 41 71 10 31 52
74 8 141 171 10 20 20
76 31 75 105 10 60 12
77 7 150 180 10 23 3
79 30 89 119 10 6 68
84 18 96 126 10 57 29
87 13 90 120 10 12 24
99 15 77 107 10 26 35
100 3 180 210 10 31 67
